
******************************************************************************
This program contains Ipopt, a library for large-scale nonlinear optimization.
 Ipopt is released as open source code under the Eclipse Public License (EPL).
         For more information visit http://projects.coin-or.org/Ipopt

This version of Ipopt was compiled from source code available at
    https://github.com/IDAES/Ipopt as part of the Institute for the Design of
    Advanced Energy Systems Process Systems Engineering Framework (IDAES PSE
    Framework) Copyright (c) 2018-2019. See https://github.com/IDAES/idaes-pse.

This version of Ipopt was compiled using HSL, a collection of Fortran codes
    for large-scale scientific computation.  All technical papers, sales and
    publicity material resulting from use of the HSL codes within IPOPT must
    contain the following acknowledgement:
        HSL, a collection of Fortran codes for large-scale scientific
        computation. See http://www.hsl.rl.ac.uk.
******************************************************************************

This is Ipopt version 3.13.2, running with linear solver ma27.

Number of nonzeros in equality constraint Jacobian...:      928
Number of nonzeros in inequality constraint Jacobian.:        0
Number of nonzeros in Lagrangian Hessian.............:      806

Total number of variables............................:      403
                     variables with only lower bounds:      124
                variables with lower and upper bounds:      217
                     variables with only upper bounds:        0
Total number of equality constraints.................:      402
Total number of inequality constraints...............:        0
        inequality constraints with only lower bounds:        0
   inequality constraints with lower and upper bounds:        0
        inequality constraints with only upper bounds:        0

iter    objective    inf_pr   inf_du lg(mu)  ||d||  lg(rg) alpha_du alpha_pr  ls
   0  0.0000000e+00 1.35e+00 1.47e-14  -1.0 0.00e+00    -  0.00e+00 0.00e+00   0
   1  5.4871493e-02 9.68e-01 5.42e+03  -1.0 7.17e+04    -  5.28e-01 3.07e-01h  2
   2  1.8631630e-01 6.23e-01 1.71e+04  -1.0 4.53e+04    -  6.04e-01 3.83e-01h  1
   3  1.8902200e-01 6.14e-01 1.69e+04  -1.0 1.12e+05    -  6.47e-01 1.37e-02h  1
   4  1.5500443e+00 4.00e-01 1.01e+04  -1.0 1.66e+05    -  7.45e-01 3.89e-01h  1
   5  9.7137491e+00 6.72e-02 1.65e+03  -1.0 1.11e+05    -  8.59e-01 9.90e-01h  1
   6  1.0577057e+01 2.80e-03 4.35e+01  -1.0 7.83e+03    -  9.79e-01 9.90e-01h  1
   7  1.0603065e+01 3.23e-05 5.08e+04  -1.0 2.34e+02    -  8.59e-01 9.90e-01h  1
   8  1.0656934e+01 3.04e-05 1.00e+07  -1.0 7.94e+03    -  3.21e-01 6.19e-02f  5
   9  1.0827843e+01 4.14e-06 1.86e+07  -1.0 1.57e+03    -  5.38e-01 9.90e-01H  1
iter    objective    inf_pr   inf_du lg(mu)  ||d||  lg(rg) alpha_du alpha_pr  ls
  10  1.0830029e+01 4.13e-06 4.06e+09  -1.0 5.11e+03    -  9.90e-01 3.87e-03h  9
  11  1.1241041e+01 2.50e-06 1.56e+09  -1.0 3.71e+03    -  6.05e-01 9.90e-01H  1
  12  1.1467035e+01 6.28e-07 2.21e+09  -1.0 2.01e+03    -  9.95e-01 9.90e-01H  1
  13  1.1448219e+01 3.74e-07 4.16e+11  -1.0 1.67e+02    -  1.00e+00 9.90e-01h  1
In iteration 13, 31 Slacks too small, adjusting variable bounds
  14  1.1447651e+01 4.04e-09 4.16e+13  -1.0 5.04e+00    -  1.00e+00 9.90e-01h  1
  15  1.1447645e+01 1.06e-11 2.42e-01  -1.0 5.25e-02    -  1.00e+00 1.00e+00h  1
  16  1.1445924e+01 3.07e-09 4.16e+13  -9.0 1.22e+04    -  9.83e-01 1.24e-03f 10
  17  1.1445066e+01 3.83e-09 4.23e+13  -9.0 1.19e+04    -  9.86e-01 6.33e-04f 11
  18  1.1444638e+01 4.03e-09 4.23e+13  -9.0 1.09e+04    -  9.90e-01 3.46e-04f 12
  19  1.1444530e+01 4.04e-09 4.23e+13  -9.0 9.96e+03    -  1.00e+00 9.44e-05f 14
iter    objective    inf_pr   inf_du lg(mu)  ||d||  lg(rg) alpha_du alpha_pr  ls
  20  1.1444477e+01 4.04e-09 4.23e+13  -9.0 9.27e+03    -  1.00e+00 5.07e-05f 15
  21  1.0584798e+01 7.66e-04 5.20e+12  -9.0 8.78e+03    -  1.00e+00 8.77e-01f  1
  22  1.0589045e+01 1.46e-06 1.27e-02  -9.0 4.04e+01    -  9.95e-01 1.00e+00h  1
  23  1.0589045e+01 8.53e-12 1.43e-07  -9.0 8.06e-04    -  1.00e+00 1.00e+00h  1

Number of Iterations....: 23

                                   (scaled)                 (unscaled)
Objective...............:   1.0589045360929541e+01    1.0589045360929541e+01
Dual infeasibility......:   1.4297836755950338e-07    1.4297836755950338e-07
Constraint violation....:   8.5300655428000027e-12    8.5300655428000027e-12
Complementarity.........:   9.2346937295739817e-10    9.2346937295739817e-10
Overall NLP error.......:   5.7994929005242246e-10    1.4297836755950338e-07


Number of objective function evaluations             = 119
Number of objective gradient evaluations             = 24
Number of equality constraint evaluations            = 119
Number of inequality constraint evaluations          = 0
Number of equality constraint Jacobian evaluations   = 24
Number of inequality constraint Jacobian evaluations = 0
Number of Lagrangian Hessian evaluations             = 23
Total CPU secs in IPOPT (w/o function evaluations)   =      0.049
Total CPU secs in NLP function evaluations           =      0.987

EXIT: Optimal Solution Found.
